Welcome to the CBC MILP Solver 
Version: 2.10.12 
Build Date: Aug 20 2024 

command line - /opt/homebrew/bin/cbc computational_data/lp/ER_n20_p035_s7.lp seconds 10.0 solve solu computational_data/solutions/ER_n20_p035_s7.sol (default strategy 1)
seconds was changed from 1e+100 to 10
Continuous objective value is 4.54545 - 0.00 seconds
Cgl0003I 0 fixed, 0 tightened bounds, 82 strengthened rows, 0 substitutions
Cgl0003I 0 fixed, 0 tightened bounds, 91 strengthened rows, 0 substitutions
Cgl0003I 0 fixed, 0 tightened bounds, 45 strengthened rows, 0 substitutions
Cgl0003I 0 fixed, 0 tightened bounds, 18 strengthened rows, 0 substitutions
Cgl0003I 0 fixed, 0 tightened bounds, 7 strengthened rows, 0 substitutions
Cgl0003I 0 fixed, 0 tightened bounds, 5 strengthened rows, 0 substitutions
Cgl0003I 0 fixed, 0 tightened bounds, 4 strengthened rows, 0 substitutions
Cgl0004I processed model has 130 rows, 40 columns (40 integer (40 of which binary)) and 691 elements
Cutoff increment increased from 1e-05 to 0.9999
Cbc0038I Initial state - 18 integers unsatisfied sum - 4.45455
Cbc0038I Pass   1: suminf.    4.03846 (19) obj. 4.80769 iterations 17
Cbc0038I Pass   2: suminf.    3.00000 (6) obj. 6 iterations 28
Cbc0038I Pass   3: suminf.    0.00000 (0) obj. 6 iterations 19
Cbc0038I Solution found of 6
Cbc0038I Before mini branch and bound, 17 integers at bound fixed and 0 continuous
Cbc0038I Full problem 130 rows 40 columns, reduced to 96 rows 23 columns
Cbc0038I Mini branch and bound did not improve solution (0.01 seconds)
Cbc0038I Round again with cutoff of 4.95464
Cbc0038I Reduced cost fixing fixed 6 variables on major pass 2
Cbc0038I Pass   4: suminf.    4.03846 (19) obj. 4.80769 iterations 0
Cbc0038I Pass   5: suminf.    3.52761 (17) obj. 4.95464 iterations 12
Cbc0038I Pass   6: suminf.    4.86391 (16) obj. 4.95464 iterations 22
Cbc0038I Pass   7: suminf.    3.51134 (18) obj. 4.95464 iterations 18
Cbc0038I Pass   8: suminf.    3.37870 (18) obj. 4.95464 iterations 3
Cbc0038I Pass   9: suminf.    4.53402 (17) obj. 4.95464 iterations 20
Cbc0038I Pass  10: suminf.    4.07495 (18) obj. 4.95464 iterations 13
Cbc0038I Pass  11: suminf.    3.68524 (20) obj. 4.95464 iterations 9
Cbc0038I Pass  12: suminf.    3.64743 (16) obj. 4.95464 iterations 7
Cbc0038I Pass  13: suminf.    4.95464 (15) obj. 4.95464 iterations 27
Cbc0038I Pass  14: suminf.    4.51515 (19) obj. 4.54545 iterations 17
Cbc0038I Pass  15: suminf.    4.03846 (19) obj. 4.80769 iterations 15
Cbc0038I Pass  16: suminf.    3.52761 (17) obj. 4.95464 iterations 13
Cbc0038I Pass  17: suminf.    4.86391 (16) obj. 4.95464 iterations 17
Cbc0038I Pass  18: suminf.    3.51134 (18) obj. 4.95464 iterations 18
Cbc0038I Pass  19: suminf.    3.37870 (18) obj. 4.95464 iterations 5
Cbc0038I Pass  20: suminf.    4.73241 (17) obj. 4.95464 iterations 21
Cbc0038I Pass  21: suminf.    3.82722 (18) obj. 4.95464 iterations 21
Cbc0038I Pass  22: suminf.    4.04536 (18) obj. 4.95464 iterations 11
Cbc0038I Pass  23: suminf.    3.78475 (17) obj. 4.95464 iterations 13
Cbc0038I Pass  24: suminf.    4.53649 (14) obj. 4.95464 iterations 12
Cbc0038I Pass  25: suminf.    4.04536 (17) obj. 4.95464 iterations 10
Cbc0038I Pass  26: suminf.    4.74697 (15) obj. 4.95464 iterations 17
Cbc0038I Pass  27: suminf.    3.91416 (17) obj. 4.95464 iterations 22
Cbc0038I Pass  28: suminf.    3.52268 (19) obj. 4.95464 iterations 14
Cbc0038I Pass  29: suminf.    4.95464 (16) obj. 4.95464 iterations 26
Cbc0038I Pass  30: suminf.    4.51515 (19) obj. 4.54545 iterations 19
Cbc0038I Pass  31: suminf.    4.03846 (19) obj. 4.80769 iterations 17
Cbc0038I Pass  32: suminf.    3.52761 (17) obj. 4.95464 iterations 15
Cbc0038I Pass  33: suminf.    4.86391 (16) obj. 4.95464 iterations 22
Cbc0038I No solution found this major pass
Cbc0038I Before mini branch and bound, 8 integers at bound fixed and 0 continuous
Cbc0038I Full problem 130 rows 40 columns, reduced to 125 rows 32 columns
Cbc0038I Mini branch and bound did not improve solution (0.03 seconds)
Cbc0038I After 0.03 seconds - Feasibility pump exiting with objective of 6 - took 0.02 seconds
Cbc0012I Integer solution of 6 found by feasibility pump after 0 iterations and 0 nodes (0.03 seconds)
Cbc0038I Full problem 130 rows 40 columns, reduced to 85 rows 19 columns
Cbc0031I 12 added rows had average density of 16.083333
Cbc0013I At root node, 45 cuts changed objective from 4.5454545 to 5.0307878 in 4 passes
Cbc0014I Cut generator 0 (Probing) - 30 row cuts average 5.6 elements, 2 column cuts (2 active)  in 0.001 seconds - new frequency is 1
Cbc0014I Cut generator 1 (Gomory) - 65 row cuts average 32.0 elements, 0 column cuts (0 active)  in 0.001 seconds - new frequency is 1
Cbc0014I Cut generator 2 (Knapsack) - 0 row cuts average 0.0 elements, 0 column cuts (0 active)  in 0.000 seconds - new frequency is -100
Cbc0014I Cut generator 3 (Clique) - 0 row cuts average 0.0 elements, 0 column cuts (0 active)  in 0.000 seconds - new frequency is -100
Cbc0014I Cut generator 4 (MixedIntegerRounding2) - 0 row cuts average 0.0 elements, 0 column cuts (0 active)  in 0.000 seconds - new frequency is -100
Cbc0014I Cut generator 5 (FlowCover) - 0 row cuts average 0.0 elements, 0 column cuts (0 active)  in 0.000 seconds - new frequency is -100
Cbc0014I Cut generator 7 (ZeroHalf) - 39 row cuts average 9.6 elements, 0 column cuts (0 active)  in 0.005 seconds - new frequency is 1
Cbc0001I Search completed - best objective 6, took 141 iterations and 0 nodes (0.04 seconds)
Cbc0035I Maximum depth 0, 6 variables fixed on reduced cost
Cuts at root node changed objective from 4.54545 to 5.03079
Probing was tried 4 times and created 32 cuts of which 0 were active after adding rounds of cuts (0.001 seconds)
Gomory was tried 4 times and created 65 cuts of which 0 were active after adding rounds of cuts (0.001 seconds)
Knapsack was tried 4 times and created 0 cuts of which 0 were active after adding rounds of cuts (0.000 seconds)
Clique was tried 4 times and created 0 cuts of which 0 were active after adding rounds of cuts (0.000 seconds)
MixedIntegerRounding2 was tried 4 times and created 0 cuts of which 0 were active after adding rounds of cuts (0.000 seconds)
FlowCover was tried 4 times and created 0 cuts of which 0 were active after adding rounds of cuts (0.000 seconds)
TwoMirCuts was tried 1 times and created 0 cuts of which 0 were active after adding rounds of cuts (0.000 seconds)
ZeroHalf was tried 4 times and created 39 cuts of which 0 were active after adding rounds of cuts (0.005 seconds)

Result - Optimal solution found

Objective value:                6.00000000
Enumerated nodes:               0
Total iterations:               141
Time (CPU seconds):             0.04
Time (Wallclock seconds):       0.05

Total time (CPU seconds):       0.04   (Wallclock seconds):       0.05

